
  12    4
  10   10   10   10

   0   0   0   0   0   2 2 5 
   7  10  10  10  10   1 3 
  10  10  10  10  10   2 6 4 
   6  10  10  10  10   3 11 10 7 
   6  10  10  10  10   3 11 10 7 
   7  10  10  10  10   4 11 10 9 8 
   3  10  10  10  10   2 9 8 
   7  10  10  10  10   1 12
   6  10  10  10  10   1 12
   6  10  10  10  10   1 12
   9  10  10  10  10   1 12
   0   0   0   0   0   0 
